n = 22;
lu = [|-341, 445
      |-460, -236
      |-27, 143
      |-296, 234
      |-361, 273
      |183, 415
      |-131, 327
      |-403, 426
      |-247, -209
      |-434, -157
      |-301, 131
      |81, 470
      |217, 266
      |-44, 462
      |241, 420
      |-435, 106
      |-463, 418
      |-214, 119
      |-166, -53
      |-300, -290
      |-370, 386
      |59, 112|];
